certificates/rado_a5_c272_N54.cnf
c Rad2 upper bound instance: x1 + 5*x2 - x3 = 272, interval [1,54]
p cnf 54 594
1 3 54 0
-1 -3 -54 0
2 4 54 0
-2 -4 -54 0
3 5 54 0
-3 -5 -54 0
4 6 54 0
-4 -6 -54 0
5 7 54 0
-5 -7 -54 0
1 8 53 0
-1 -8 -53 0
6 8 54 0
-6 -8 -54 0
2 9 53 0
-2 -9 -53 0
7 9 54 0
-7 -9 -54 0
3 10 53 0
-3 -10 -53 0
8 10 54 0
-8 -10 -54 0
4 11 53 0
-4 -11 -53 0
9 11 54 0
-9 -11 -54 0
5 12 53 0
-5 -12 -53 0
10 12 54 0
-10 -12 -54 0
1 13 52 0
-1 -13 -52 0
6 13 53 0
-6 -13 -53 0
11 13 54 0
-11 -13 -54 0
2 14 52 0
-2 -14 -52 0
7 14 53 0
-7 -14 -53 0
12 14 54 0
-12 -14 -54 0
3 15 52 0
-3 -15 -52 0
8 15 53 0
-8 -15 -53 0
13 15 54 0
-13 -15 -54 0
4 16 52 0
-4 -16 -52 0
9 16 53 0
-9 -16 -53 0
14 16 54 0
-14 -16 -54 0
5 17 52 0
-5 -17 -52 0
10 17 53 0
-10 -17 -53 0
15 17 54 0
-15 -17 -54 0
1 18 51 0
-1 -18 -51 0
6 18 52 0
-6 -18 -52 0
11 18 53 0
-11 -18 -53 0
16 18 54 0
-16 -18 -54 0
2 19 51 0
-2 -19 -51 0
7 19 52 0
-7 -19 -52 0
12 19 53 0
-12 -19 -53 0
17 19 54 0
-17 -19 -54 0
3 20 51 0
-3 -20 -51 0
8 20 52 0
-8 -20 -52 0
13 20 53 0
-13 -20 -53 0
18 20 54 0
-18 -20 -54 0
4 21 51 0
-4 -21 -51 0
9 21 52 0
-9 -21 -52 0
14 21 53 0
-14 -21 -53 0
19 21 54 0
-19 -21 -54 0
5 22 51 0
-5 -22 -51 0
10 22 52 0
-10 -22 -52 0
15 22 53 0
-15 -22 -53 0
20 22 54 0
-20 -22 -54 0
1 23 50 0
-1 -23 -50 0
6 23 51 0
-6 -23 -51 0
11 23 52 0
-11 -23 -52 0
16 23 53 0
-16 -23 -53 0
21 23 54 0
-21 -23 -54 0
2 24 50 0
-2 -24 -50 0
7 24 51 0
-7 -24 -51 0
12 24 52 0
-12 -24 -52 0
17 24 53 0
-17 -24 -53 0
22 24 54 0
-22 -24 -54 0
3 25 50 0
-3 -25 -50 0
8 25 51 0
-8 -25 -51 0
13 25 52 0
-13 -25 -52 0
18 25 53 0
-18 -25 -53 0
23 25 54 0
-23 -25 -54 0
4 26 50 0
-4 -26 -50 0
9 26 51 0
-9 -26 -51 0
14 26 52 0
-14 -26 -52 0
19 26 53 0
-19 -26 -53 0
24 26 54 0
-24 -26 -54 0
5 27 50 0
-5 -27 -50 0
10 27 51 0
-10 -27 -51 0
15 27 52 0
-15 -27 -52 0
20 27 53 0
-20 -27 -53 0
25 27 54 0
-25 -27 -54 0
1 28 49 0
-1 -28 -49 0
6 28 50 0
-6 -28 -50 0
11 28 51 0
-11 -28 -51 0
16 28 52 0
-16 -28 -52 0
21 28 53 0
-21 -28 -53 0
26 28 54 0
-26 -28 -54 0
2 29 49 0
-2 -29 -49 0
7 29 50 0
-7 -29 -50 0
12 29 51 0
-12 -29 -51 0
17 29 52 0
-17 -29 -52 0
22 29 53 0
-22 -29 -53 0
27 29 54 0
-27 -29 -54 0
3 30 49 0
-3 -30 -49 0
8 30 50 0
-8 -30 -50 0
13 30 51 0
-13 -30 -51 0
18 30 52 0
-18 -30 -52 0
23 30 53 0
-23 -30 -53 0
28 30 54 0
-28 -30 -54 0
4 31 49 0
-4 -31 -49 0
9 31 50 0
-9 -31 -50 0
14 31 51 0
-14 -31 -51 0
19 31 52 0
-19 -31 -52 0
24 31 53 0
-24 -31 -53 0
29 31 54 0
-29 -31 -54 0
5 32 49 0
-5 -32 -49 0
10 32 50 0
-10 -32 -50 0
15 32 51 0
-15 -32 -51 0
20 32 52 0
-20 -32 -52 0
25 32 53 0
-25 -32 -53 0
30 32 54 0
-30 -32 -54 0
1 33 48 0
-1 -33 -48 0
6 33 49 0
-6 -33 -49 0
11 33 50 0
-11 -33 -50 0
16 33 51 0
-16 -33 -51 0
21 33 52 0
-21 -33 -52 0
26 33 53 0
-26 -33 -53 0
31 33 54 0
-31 -33 -54 0
2 34 48 0
-2 -34 -48 0
7 34 49 0
-7 -34 -49 0
12 34 50 0
-12 -34 -50 0
17 34 51 0
-17 -34 -51 0
22 34 52 0
-22 -34 -52 0
27 34 53 0
-27 -34 -53 0
32 34 54 0
-32 -34 -54 0
3 35 48 0
-3 -35 -48 0
8 35 49 0
-8 -35 -49 0
13 35 50 0
-13 -35 -50 0
18 35 51 0
-18 -35 -51 0
23 35 52 0
-23 -35 -52 0
28 35 53 0
-28 -35 -53 0
33 35 54 0
-33 -35 -54 0
4 36 48 0
-4 -36 -48 0
9 36 49 0
-9 -36 -49 0
14 36 50 0
-14 -36 -50 0
19 36 51 0
-19 -36 -51 0
24 36 52 0
-24 -36 -52 0
29 36 53 0
-29 -36 -53 0
34 36 54 0
-34 -36 -54 0
5 37 48 0
-5 -37 -48 0
10 37 49 0
-10 -37 -49 0
15 37 50 0
-15 -37 -50 0
20 37 51 0
-20 -37 -51 0
25 37 52 0
-25 -37 -52 0
30 37 53 0
-30 -37 -53 0
35 37 54 0
-35 -37 -54 0
1 38 47 0
-1 -38 -47 0
6 38 48 0
-6 -38 -48 0
11 38 49 0
-11 -38 -49 0
16 38 50 0
-16 -38 -50 0
21 38 51 0
-21 -38 -51 0
26 38 52 0
-26 -38 -52 0
31 38 53 0
-31 -38 -53 0
36 38 54 0
-36 -38 -54 0
2 39 47 0
-2 -39 -47 0
7 39 48 0
-7 -39 -48 0
12 39 49 0
-12 -39 -49 0
17 39 50 0
-17 -39 -50 0
22 39 51 0
-22 -39 -51 0
27 39 52 0
-27 -39 -52 0
32 39 53 0
-32 -39 -53 0
37 39 54 0
-37 -39 -54 0
3 40 47 0
-3 -40 -47 0
8 40 48 0
-8 -40 -48 0
13 40 49 0
-13 -40 -49 0
18 40 50 0
-18 -40 -50 0
23 40 51 0
-23 -40 -51 0
28 40 52 0
-28 -40 -52 0
33 40 53 0
-33 -40 -53 0
38 40 54 0
-38 -40 -54 0
4 41 47 0
-4 -41 -47 0
9 41 48 0
-9 -41 -48 0
14 41 49 0
-14 -41 -49 0
19 41 50 0
-19 -41 -50 0
24 41 51 0
-24 -41 -51 0
29 41 52 0
-29 -41 -52 0
34 41 53 0
-34 -41 -53 0
39 41 54 0
-39 -41 -54 0
5 42 47 0
-5 -42 -47 0
10 42 48 0
-10 -42 -48 0
15 42 49 0
-15 -42 -49 0
20 42 50 0
-20 -42 -50 0
25 42 51 0
-25 -42 -51 0
30 42 52 0
-30 -42 -52 0
35 42 53 0
-35 -42 -53 0
40 42 54 0
-40 -42 -54 0
1 43 46 0
-1 -43 -46 0
6 43 47 0
-6 -43 -47 0
11 43 48 0
-11 -43 -48 0
16 43 49 0
-16 -43 -49 0
21 43 50 0
-21 -43 -50 0
26 43 51 0
-26 -43 -51 0
31 43 52 0
-31 -43 -52 0
36 43 53 0
-36 -43 -53 0
41 43 54 0
-41 -43 -54 0
2 44 46 0
-2 -44 -46 0
7 44 47 0
-7 -44 -47 0
12 44 48 0
-12 -44 -48 0
17 44 49 0
-17 -44 -49 0
22 44 50 0
-22 -44 -50 0
27 44 51 0
-27 -44 -51 0
32 44 52 0
-32 -44 -52 0
37 44 53 0
-37 -44 -53 0
42 44 54 0
-42 -44 -54 0
3 45 46 0
-3 -45 -46 0
8 45 47 0
-8 -45 -47 0
13 45 48 0
-13 -45 -48 0
18 45 49 0
-18 -45 -49 0
23 45 50 0
-23 -45 -50 0
28 45 51 0
-28 -45 -51 0
33 45 52 0
-33 -45 -52 0
38 45 53 0
-38 -45 -53 0
43 45 54 0
-43 -45 -54 0
4 46 0
-4 -46 0
9 46 47 0
-9 -46 -47 0
14 46 48 0
-14 -46 -48 0
19 46 49 0
-19 -46 -49 0
24 46 50 0
-24 -46 -50 0
29 46 51 0
-29 -46 -51 0
34 46 52 0
-34 -46 -52 0
39 46 53 0
-39 -46 -53 0
44 46 54 0
-44 -46 -54 0
5 46 47 0
-5 -46 -47 0
10 47 0
-10 -47 0
15 47 48 0
-15 -47 -48 0
20 47 49 0
-20 -47 -49 0
25 47 50 0
-25 -47 -50 0
30 47 51 0
-30 -47 -51 0
35 47 52 0
-35 -47 -52 0
40 47 53 0
-40 -47 -53 0
45 47 54 0
-45 -47 -54 0
1 45 48 0
-1 -45 -48 0
6 46 48 0
-6 -46 -48 0
11 47 48 0
-11 -47 -48 0
16 48 0
-16 -48 0
21 48 49 0
-21 -48 -49 0
26 48 50 0
-26 -48 -50 0
31 48 51 0
-31 -48 -51 0
36 48 52 0
-36 -48 -52 0
41 48 53 0
-41 -48 -53 0
46 48 54 0
-46 -48 -54 0
2 45 49 0
-2 -45 -49 0
7 46 49 0
-7 -46 -49 0
12 47 49 0
-12 -47 -49 0
17 48 49 0
-17 -48 -49 0
22 49 0
-22 -49 0
27 49 50 0
-27 -49 -50 0
32 49 51 0
-32 -49 -51 0
37 49 52 0
-37 -49 -52 0
42 49 53 0
-42 -49 -53 0
47 49 54 0
-47 -49 -54 0
3 45 50 0
-3 -45 -50 0
8 46 50 0
-8 -46 -50 0
13 47 50 0
-13 -47 -50 0
18 48 50 0
-18 -48 -50 0
23 49 50 0
-23 -49 -50 0
28 50 0
-28 -50 0
33 50 51 0
-33 -50 -51 0
38 50 52 0
-38 -50 -52 0
43 50 53 0
-43 -50 -53 0
48 50 54 0
-48 -50 -54 0
4 45 51 0
-4 -45 -51 0
9 46 51 0
-9 -46 -51 0
14 47 51 0
-14 -47 -51 0
19 48 51 0
-19 -48 -51 0
24 49 51 0
-24 -49 -51 0
29 50 51 0
-29 -50 -51 0
34 51 0
-34 -51 0
39 51 52 0
-39 -51 -52 0
44 51 53 0
-44 -51 -53 0
49 51 54 0
-49 -51 -54 0
5 45 52 0
-5 -45 -52 0
10 46 52 0
-10 -46 -52 0
15 47 52 0
-15 -47 -52 0
20 48 52 0
-20 -48 -52 0
25 49 52 0
-25 -49 -52 0
30 50 52 0
-30 -50 -52 0
35 51 52 0
-35 -51 -52 0
40 52 0
-40 -52 0
45 52 53 0
-45 -52 -53 0
50 52 54 0
-50 -52 -54 0
1 44 53 0
-1 -44 -53 0
6 45 53 0
-6 -45 -53 0
11 46 53 0
-11 -46 -53 0
16 47 53 0
-16 -47 -53 0
21 48 53 0
-21 -48 -53 0
26 49 53 0
-26 -49 -53 0
31 50 53 0
-31 -50 -53 0
36 51 53 0
-36 -51 -53 0
41 52 53 0
-41 -52 -53 0
46 53 0
-46 -53 0
51 53 54 0
-51 -53 -54 0
2 44 54 0
-2 -44 -54 0
7 45 54 0
-7 -45 -54 0
12 46 54 0
-12 -46 -54 0
17 47 54 0
-17 -47 -54 0
22 48 54 0
-22 -48 -54 0
27 49 54 0
-27 -49 -54 0
32 50 54 0
-32 -50 -54 0
37 51 54 0
-37 -51 -54 0
42 52 54 0
-42 -52 -54 0
47 53 54 0
-47 -53 -54 0
52 54 0
-52 -54 0
