certificates/rado_a5_c272_N54.drat
-54 0
52 0
-40 0
38 0
42 0
-26 0
-50 0
-30 0
4 0
24 0
28 0
48 0
32 0
18 0
8 0
-16 0
-36 0
-46 0
-12 0
-20 0
-6 0
-10 0
-44 0
14 0
34 0
0
